2025-11-09 14:39:39,705 INFO - Solving the line planning problem with ILP
2025-11-09 14:39:39,706 INFO - Set parameter Username
2025-11-09 14:39:39,706 INFO - Set parameter LicenseID to value 2711114
2025-11-09 14:39:39,708 INFO - Academic license - for non-commercial use only - expires 2026-09-20
2025-11-09 14:39:39,708 INFO - Set parameter TimeLimit to value 86400
2025-11-09 14:39:59,836 INFO - Set parameter LogFile to value "Results\100_percent\budget_10000\original\gurobi.log"
2025-11-09 14:39:59,836 INFO - method: -1
2025-11-09 14:39:59,837 INFO - Gurobi Optimizer version 12.0.3 build v12.0.3rc0 (win64 - Windows 11+.0 (26200.2))
2025-11-09 14:39:59,837 INFO - 
2025-11-09 14:39:59,837 INFO - CPU model: Intel(R) Core(TM) Ultra 7 265K, instruction set [SSE2|AVX|AVX2]
2025-11-09 14:39:59,838 INFO - Thread count: 20 physical cores, 20 logical processors, using up to 20 threads
2025-11-09 14:39:59,838 INFO - 
2025-11-09 14:39:59,838 INFO - Non-default parameters:
2025-11-09 14:39:59,838 INFO - TimeLimit  86400
2025-11-09 14:39:59,839 INFO - 
2025-11-09 14:39:59,840 INFO - Optimize a model with 29203 rows, 2435852 columns and 15323556 nonzeros
2025-11-09 14:39:59,920 INFO - Model fingerprint: 0x473fe44e
2025-11-09 14:39:59,921 INFO - Variable types: 0 continuous, 2435852 integer (2435852 binary)
2025-11-09 14:39:59,959 INFO - Coefficient statistics:
2025-11-09 14:39:59,960 INFO -   Matrix range     [1e+00, 2e+03]
2025-11-09 14:39:59,960 INFO -   Objective range  [1e+00, 1e+03]
2025-11-09 14:39:59,960 INFO -   Bounds range     [1e+00, 1e+00]
2025-11-09 14:39:59,960 INFO -   RHS range        [1e+00, 1e+04]
2025-11-09 14:40:00,144 INFO - Found heuristic solution: objective -0.0000000
2025-11-09 14:40:05,921 INFO - Presolve removed 566 rows and 4 columns (presolve time = 5s)...
2025-11-09 14:40:10,677 INFO - Presolve removed 1011 rows and 4 columns (presolve time = 10s)...
2025-11-09 14:40:15,676 INFO - Presolve removed 1011 rows and 4 columns (presolve time = 15s)...
2025-11-09 14:40:20,660 INFO - Presolve removed 1011 rows and 4 columns (presolve time = 20s)...
2025-11-09 14:40:24,381 INFO - Presolve added 0 rows and 1 columns
2025-11-09 14:40:24,381 INFO - Presolve removed 1006 rows and 0 columns
2025-11-09 14:40:24,381 INFO - Presolve time: 23.72s
2025-11-09 14:40:24,421 INFO - Presolved: 28197 rows, 2435853 columns, 15116991 nonzeros
2025-11-09 14:40:26,971 INFO - Variable types: 0 continuous, 2435853 integer (2435844 binary)
2025-11-09 14:40:31,159 INFO - Deterministic concurrent LP optimizer: primal simplex, dual simplex, and barrier
2025-11-09 14:40:31,159 INFO - Showing barrier log only...
2025-11-09 14:40:31,159 INFO - 
2025-11-09 14:40:32,310 INFO - Root barrier log...
2025-11-09 14:40:32,310 INFO - 
2025-11-09 14:40:38,198 INFO - Elapsed ordering time = 5s
2025-11-09 14:40:43,198 INFO - Elapsed ordering time = 10s
2025-11-09 14:40:48,282 INFO - Ordering time: 15.09s
2025-11-09 14:40:49,766 INFO - 
2025-11-09 14:40:49,766 INFO - Barrier statistics:
2025-11-09 14:40:49,766 INFO -  AA' NZ     : 1.280e+07
2025-11-09 14:40:49,766 INFO -  Factor NZ  : 1.025e+08 (roughly 2.0 GB of memory)
2025-11-09 14:40:49,766 INFO -  Factor Ops : 7.969e+11 (roughly 2 seconds per iteration)
2025-11-09 14:40:49,766 INFO -  Threads    : 18
2025-11-09 14:40:51,002 INFO - 
2025-11-09 14:40:51,003 INFO -                   Objective                Residual
2025-11-09 14:40:51,003 INFO - Iter       Primal          Dual         Primal    Dual     Compl     Time
2025-11-09 14:40:51,089 INFO -    0   4.95535566e+10  7.00680637e+07  5.97e+05 7.23e+02  8.37e+04    51s
2025-11-09 14:40:52,399 INFO -    1   7.81121384e+09  6.24058141e+07  9.03e+04 1.26e+02  1.27e+04    53s
2025-11-09 14:40:53,813 INFO -    2   8.27348798e+08  2.44684943e+07  9.58e+03 1.42e+01  1.38e+03    54s
2025-11-09 14:40:55,433 INFO -    3   3.79367204e+07  1.16176647e+07  4.40e+02 1.36e-12  6.55e+01    56s
2025-11-09 14:40:57,376 INFO -    4   1.37664294e+07  9.59608980e+06  1.57e+02 1.61e-12  2.38e+01    58s
2025-11-09 14:40:59,429 INFO -    5   4.86887260e+06  6.02630770e+06  5.31e+01 9.84e-13  8.65e+00    60s
2025-11-09 14:41:01,265 INFO -    6   3.13992134e+06  3.04378171e+06  3.30e+01 1.11e-12  5.21e+00    61s
2025-11-09 14:41:03,164 INFO -    7   2.34152519e+06  2.07890896e+06  2.39e+01 9.22e-13  3.73e+00    63s
2025-11-09 14:41:04,824 INFO -    8   1.60748113e+06  1.52811526e+06  1.57e+01 1.11e-12  2.47e+00    65s
2025-11-09 14:41:06,174 INFO -    9   1.20868811e+06  1.35048785e+06  1.14e+01 1.59e-12  1.81e+00    66s
2025-11-09 14:41:07,539 INFO -   10   9.70576434e+05  1.20011122e+06  8.78e+00 9.51e-13  1.41e+00    68s
2025-11-09 14:41:09,118 INFO -   11   7.16756113e+05  1.05834986e+06  6.04e+00 1.17e-12  9.75e-01    69s
2025-11-09 14:41:10,840 INFO -   12   4.34753042e+05  9.03243078e+05  3.02e+00 7.12e-13  5.23e-01    71s
2025-11-09 14:41:12,701 INFO -   13   2.84935788e+05  8.00928380e+05  1.37e+00 7.35e-13  2.85e-01    73s
2025-11-09 14:41:14,351 INFO -   14   2.37375404e+05  7.13481204e+05  7.92e-01 8.76e-13  1.92e-01    75s
2025-11-09 14:41:16,158 INFO -   15   2.11682032e+05  6.22423611e+05  4.39e-01 5.27e-13  1.30e-01    76s
2025-11-09 14:41:17,938 INFO -   16   2.06644712e+05  4.90084358e+05  3.06e-01 4.44e-13  8.34e-02    78s
2025-11-09 14:41:19,513 INFO -   17   2.06763995e+05  4.40360304e+05  2.13e-01 5.18e-13  6.36e-02    80s
2025-11-09 14:41:22,070 INFO -   18   2.07299287e+05  4.01694265e+05  2.03e-01 6.60e-13  5.33e-02    82s
2025-11-09 14:41:24,749 INFO -   19   2.11617520e+05  3.87167857e+05  1.59e-01 5.52e-13  4.61e-02    85s
2025-11-09 14:41:27,681 INFO -   20   2.18619393e+05  3.61632989e+05  1.28e-01 5.46e-13  3.68e-02    88s
2025-11-09 14:41:30,840 INFO -   21   2.24795150e+05  3.49089475e+05  1.08e-01 4.20e-13  3.15e-02    91s
2025-11-09 14:41:34,060 INFO -   22   2.27877822e+05  3.32298950e+05  9.90e-02 4.63e-13  2.67e-02    94s
2025-11-09 14:41:37,232 INFO -   23   2.38700900e+05  3.20832626e+05  7.94e-02 3.58e-13  2.09e-02    97s
2025-11-09 14:41:40,416 INFO -   24   2.50568955e+05  3.15927859e+05  5.92e-02 3.20e-13  1.63e-02   101s
2025-11-09 14:41:40,798 INFO - 
2025-11-09 14:41:40,798 INFO - Barrier performed 24 iterations in 100.92 seconds (163.99 work units)
2025-11-09 14:41:40,798 INFO - Barrier solve interrupted - model solved by another algorithm
2025-11-09 14:41:40,798 INFO - 
2025-11-09 14:41:40,861 INFO - Concurrent spin time: 0.13s
2025-11-09 14:41:40,861 INFO - 
2025-11-09 14:41:40,861 INFO - Solved with primal simplex
2025-11-09 14:41:40,925 INFO - 
2025-11-09 14:41:40,925 INFO - Root simplex log...
2025-11-09 14:41:40,925 INFO - 
2025-11-09 14:41:40,925 INFO - Iteration    Objective       Primal Inf.    Dual Inf.      Time
2025-11-09 14:41:40,925 INFO -   521283    3.0458718e+05   0.000000e+00   0.000000e+00    101s
2025-11-09 14:41:40,925 INFO - 
2025-11-09 14:41:40,926 INFO - Root relaxation: objective 3.045872e+05, 521283 iterations, 73.64 seconds (50.24 work units)
2025-11-09 14:41:45,299 INFO - Total elapsed time = 105.46s (DegenMoves)
2025-11-09 14:41:47,459 INFO - 
2025-11-09 14:41:47,459 INFO -     Nodes    |    Current Node    |     Objective Bounds      |     Work
2025-11-09 14:41:47,459 INFO -  Expl Unexpl |  Obj  Depth IntInf | Incumbent    BestBd   Gap | It/Node Time
2025-11-09 14:41:47,459 INFO - 
2025-11-09 14:41:47,459 INFO -      0     0 304587.183    0  286   -0.00000 304587.183      -     -  107s
2025-11-09 14:41:48,250 INFO - H    0     0                    101642.00000 304587.183   200%     -  108s
2025-11-09 14:41:48,363 INFO - H    0     0                    105469.00000 304587.183   189%     -  108s
2025-11-09 14:41:52,759 INFO - H    0     0                    207312.00000 304587.183  46.9%     -  112s
2025-11-09 14:41:53,900 INFO - H    0     0                    281223.00000 304587.183  8.31%     -  114s
2025-11-09 14:41:57,452 INFO - H    0     0                    281271.00000 304587.183  8.29%     -  117s
2025-11-09 14:42:00,469 INFO - H    0     0                    281865.00000 304587.183  8.06%     -  120s
2025-11-09 14:42:00,638 INFO - H    0     0                    282236.00000 304587.183  7.92%     -  120s
2025-11-09 14:42:01,834 INFO - H    0     0                    282312.00000 304587.183  7.89%     -  121s
2025-11-09 14:42:39,417 INFO -      0     0 302186.803    0 2758 282312.000 302186.803  7.04%     -  159s
2025-11-09 14:42:56,228 INFO - H    0     0                    282330.00000 302180.348  7.03%     -  176s
2025-11-09 14:42:56,476 INFO - H    0     0                    283169.00000 302180.348  6.71%     -  176s
2025-11-09 14:42:57,295 INFO - H    0     0                    287673.00000 302180.348  5.04%     -  177s
2025-11-09 14:42:57,607 INFO - H    0     0                    287885.00000 302180.348  4.97%     -  177s
2025-11-09 14:42:58,017 INFO - H    0     0                    289296.00000 302180.348  4.45%     -  178s
2025-11-09 14:42:59,479 INFO - H    0     0                    289335.00000 302180.348  4.44%     -  179s
2025-11-09 14:43:03,268 INFO - H    0     0                    289365.00000 302180.348  4.43%     -  183s
2025-11-09 14:43:07,425 INFO - H    0     0                    289366.00000 302180.348  4.43%     -  187s
2025-11-09 14:43:17,809 INFO - H    0     0                    290619.00000 302180.348  3.98%     -  197s
2025-11-09 14:43:24,078 INFO -      0     0 301896.754    0 3223 290619.000 301896.754  3.88%     -  204s
2025-11-09 14:43:27,754 INFO -      0     0 301875.909    0 3351 290619.000 301875.909  3.87%     -  207s
2025-11-09 14:43:31,862 INFO -      0     0 301871.634    0 3406 290619.000 301871.634  3.87%     -  212s
2025-11-09 14:43:33,992 INFO -      0     0 301868.390    0 3450 290619.000 301868.390  3.87%     -  214s
2025-11-09 14:43:36,023 INFO -      0     0 301866.416    0 3465 290619.000 301866.416  3.87%     -  216s
2025-11-09 14:43:38,309 INFO -      0     0 301865.927    0 3466 290619.000 301865.927  3.87%     -  218s
2025-11-09 14:43:40,136 INFO -      0     0 301865.107    0 3475 290619.000 301865.107  3.87%     -  220s
2025-11-09 14:43:42,044 INFO -      0     0 301864.105    0 3485 290619.000 301864.105  3.87%     -  222s
2025-11-09 14:43:43,922 INFO -      0     0 301864.105    0 3497 290619.000 301864.105  3.87%     -  224s
2025-11-09 14:44:28,910 INFO -      0     0 300161.577    0 3928 290619.000 300161.577  3.28%     -  269s
2025-11-09 14:44:31,674 INFO - H    0     0                    290666.00000 300158.428  3.27%     -  271s
2025-11-09 14:44:39,915 INFO - H    0     0                    290695.00000 300158.428  3.26%     -  280s
2025-11-09 14:44:40,667 INFO - H    0     0                    291104.00000 300158.428  3.11%     -  280s
2025-11-09 14:44:41,365 INFO - H    0     0                    291186.00000 300158.428  3.08%     -  281s
2025-11-09 14:44:42,739 INFO - H    0     0                    292103.00000 300158.428  2.76%     -  282s
2025-11-09 14:44:45,683 INFO - H    0     0                    292362.00000 300158.428  2.67%     -  285s
2025-11-09 14:44:49,112 INFO - H    0     0                    292387.00000 300158.428  2.66%     -  289s
2025-11-09 14:45:01,638 INFO -      0     0 299987.401    0 3808 292387.000 299987.401  2.60%     -  301s
2025-11-09 14:45:10,402 INFO -      0     0 299960.789    0 3765 292387.000 299960.789  2.59%     -  310s
2025-11-09 14:45:14,449 INFO -      0     0 299957.215    0 3904 292387.000 299957.215  2.59%     -  314s
2025-11-09 14:45:18,609 INFO -      0     0 299954.594    0 3908 292387.000 299954.594  2.59%     -  318s
2025-11-09 14:45:21,789 INFO -      0     0 299953.014    0 3878 292387.000 299953.014  2.59%     -  321s
2025-11-09 14:45:23,985 INFO -      0     0 299952.822    0 3928 292387.000 299952.822  2.59%     -  324s
2025-11-09 14:46:17,820 INFO -      0     0 298801.798    0 4462 292387.000 298801.798  2.19%     -  377s
2025-11-09 14:46:33,101 INFO - H    0     0                    292416.00000 298798.081  2.18%     -  393s
2025-11-09 14:46:33,331 INFO - H    0     0                    292419.00000 298798.081  2.18%     -  393s
2025-11-09 14:46:33,697 INFO - H    0     0                    292466.00000 298798.081  2.17%     -  393s
2025-11-09 14:46:41,850 INFO - H    0     0                    292468.00000 298798.081  2.16%     -  402s
2025-11-09 14:47:00,409 INFO -      0     0 298653.203    0 4563 292468.000 298653.203  2.11%     -  420s
2025-11-09 14:47:10,308 INFO -      0     0 298629.695    0 4718 292468.000 298629.695  2.11%     -  430s
2025-11-09 14:47:18,193 INFO -      0     0 298621.079    0 4934 292468.000 298621.079  2.10%     -  438s
2025-11-09 14:47:25,483 INFO -      0     0 298617.381    0 4829 292468.000 298617.381  2.10%     -  445s
2025-11-09 14:47:29,632 INFO -      0     0 298616.739    0 4811 292468.000 298616.739  2.10%     -  449s
2025-11-09 14:48:29,868 INFO -      0     0 297917.884    0 4524 292468.000 297917.884  1.86%     -  510s
2025-11-09 14:48:47,607 INFO -      0     0 297816.870    0 4410 292468.000 297816.870  1.83%     -  527s
2025-11-09 14:48:58,328 INFO -      0     0 297793.521    0 4564 292468.000 297793.521  1.82%     -  538s
2025-11-09 14:49:04,412 INFO -      0     0 297786.126    0 4609 292468.000 297786.126  1.82%     -  544s
2025-11-09 14:49:09,212 INFO -      0     0 297783.243    0 4426 292468.000 297783.243  1.82%     -  549s
2025-11-09 14:49:13,193 INFO -      0     0 297782.344    0 4630 292468.000 297782.344  1.82%     -  553s
2025-11-09 14:52:20,574 INFO -      0     0 297286.438    0 4722 292468.000 297286.438  1.65%     -  740s
2025-11-09 14:52:42,837 INFO - H    0     0                    293849.00000 297280.071  1.17%     -  762s
2025-11-09 14:52:43,775 INFO - H    0     0                    293862.00000 297280.071  1.16%     -  763s
2025-11-09 14:52:47,440 INFO - H    0     0                    294835.00000 297280.071  0.83%     -  767s
2025-11-09 14:52:48,125 INFO - H    0     0                    295015.00000 297280.071  0.77%     -  768s
2025-11-09 14:52:54,213 INFO - H    0     0                    295025.00000 297280.071  0.76%     -  774s
2025-11-09 14:53:10,145 INFO -      0     0 297244.107    0 4670 295025.000 297244.107  0.75%     -  790s
2025-11-09 14:53:19,588 INFO -      0     0 297225.101    0 4551 295025.000 297225.101  0.75%     -  799s
2025-11-09 14:53:26,014 INFO -      0     0 297218.346    0 4274 295025.000 297218.346  0.74%     -  806s
2025-11-09 14:53:30,669 INFO -      0     0 297215.450    0 4706 295025.000 297215.450  0.74%     -  810s
2025-11-09 14:53:34,994 INFO -      0     0 297214.348    0 4365 295025.000 297214.348  0.74%     -  815s
2025-11-09 14:54:18,125 INFO -      0     0 296907.896    0 4130 295025.000 296907.896  0.64%     -  858s
2025-11-09 14:54:25,498 INFO - H    0     0                    295119.00000 296907.071  0.61%     -  865s
2025-11-09 14:54:42,460 INFO -      0     0 296860.273    0 3495 295119.000 296860.273  0.59%     -  882s
2025-11-09 14:54:49,502 INFO -      0     0 296846.658    0 3555 295119.000 296846.658  0.59%     -  889s
2025-11-09 14:54:54,077 INFO -      0     0 296841.618    0 3558 295119.000 296841.618  0.58%     -  894s
2025-11-09 14:54:57,921 INFO -      0     0 296837.165    0 3572 295119.000 296837.165  0.58%     -  898s
2025-11-09 14:55:00,906 INFO -      0     0 296836.409    0 3184 295119.000 296836.409  0.58%     -  901s
2025-11-09 14:55:47,716 INFO -      0     0 296613.472    0 4362 295119.000 296613.472  0.51%     -  947s
2025-11-09 14:55:55,180 INFO -      0     0 296612.488    0 4019 295119.000 296612.488  0.51%     -  955s
2025-11-09 14:56:32,536 INFO -      0     0 296586.465    0 4034 295119.000 296586.465  0.50%     -  992s
2025-11-09 14:56:46,361 INFO -      0     0 296575.639    0 4314 295119.000 296575.639  0.49%     - 1006s
2025-11-09 14:56:53,180 INFO -      0     0 296570.970    0 3999 295119.000 296570.970  0.49%     - 1013s
2025-11-09 14:56:57,442 INFO -      0     0 296569.460    0 4075 295119.000 296569.460  0.49%     - 1017s
2025-11-09 14:57:45,264 INFO -      0     0 296417.389    0 4458 295119.000 296417.389  0.44%     - 1065s
2025-11-09 14:58:12,607 INFO - H    0     0                    295123.00000 296416.266  0.44%     - 1092s
2025-11-09 14:58:41,776 INFO -      0     0 296390.885    0 3668 295123.000 296390.885  0.43%     - 1121s
2025-11-09 14:58:56,931 INFO -      0     0 296382.033    0 4216 295123.000 296382.033  0.43%     - 1137s
2025-11-09 14:59:04,105 INFO -      0     0 296379.767    0 3979 295123.000 296379.767  0.43%     - 1144s
2025-11-09 14:59:47,544 INFO -      0     0 296299.053    0 3334 295123.000 296299.053  0.40%     - 1187s
2025-11-09 15:00:06,743 INFO - H    0     0                    295844.00000 296298.331  0.15%     - 1206s
2025-11-09 15:00:06,957 INFO - H    0     0                    295849.00000 296298.331  0.15%     - 1207s
2025-11-09 15:00:17,338 INFO - H    0     0                    295866.00000 296298.331  0.15%     - 1217s
2025-11-09 15:00:31,214 INFO - H    0     0                    295947.00000 296298.331  0.12%     - 1231s
2025-11-09 15:00:45,113 INFO -      0     0 296285.098    0 4034 295947.000 296285.098  0.11%     - 1245s
2025-11-09 15:00:50,306 INFO -      0     0 296283.771    0 3110 295947.000 296283.771  0.11%     - 1250s
2025-11-09 15:01:26,096 INFO -      0     0 296229.548    0 2909 295947.000 296229.548  0.10%     - 1286s
2025-11-09 15:02:28,121 INFO -      0     0 296229.548    0  297 295947.000 296229.548  0.10%     - 1348s
2025-11-09 15:03:16,656 INFO -      0     0 296229.548    0 2608 295947.000 296229.548  0.10%     - 1396s
2025-11-09 15:03:52,681 INFO -      0     0 296229.548    0 3722 295947.000 296229.548  0.10%     - 1432s
2025-11-09 15:04:13,153 INFO -      0     0 296229.548    0 4367 295947.000 296229.548  0.10%     - 1453s
2025-11-09 15:04:31,825 INFO -      0     0 296229.548    0 4445 295947.000 296229.548  0.10%     - 1471s
2025-11-09 15:04:48,264 INFO -      0     0 296229.548    0 4560 295947.000 296229.548  0.10%     - 1488s
2025-11-09 15:05:12,314 INFO -      0     0 296229.548    0 4038 295947.000 296229.548  0.10%     - 1512s
2025-11-09 15:05:31,397 INFO -      0     0 296229.548    0 4532 295947.000 296229.548  0.10%     - 1531s
2025-11-09 15:05:46,411 INFO -      0     0 296229.548    0 4358 295947.000 296229.548  0.10%     - 1546s
2025-11-09 15:06:09,994 INFO -      0     0 296229.548    0 4598 295947.000 296229.548  0.10%     - 1570s
2025-11-09 15:06:33,366 INFO -      0     0 296229.548    0 3193 295947.000 296229.548  0.10%     - 1593s
2025-11-09 15:06:44,182 INFO -      0     0 296229.548    0 3939 295947.000 296229.548  0.10%     - 1604s
2025-11-09 15:06:53,799 INFO -      0     0 296229.548    0 3795 295947.000 296229.548  0.10%     - 1613s
2025-11-09 15:07:01,024 INFO -      0     0 296229.548    0 2996 295947.000 296229.548  0.10%     - 1621s
2025-11-09 15:07:05,905 INFO -      0     0 296229.133    0 4266 295947.000 296229.133  0.10%     - 1626s
2025-11-09 15:07:10,286 INFO -      0     0 296228.437    0 3238 295947.000 296228.437  0.10%     - 1630s
2025-11-09 15:07:14,600 INFO -      0     0 296227.603    0 3442 295947.000 296227.603  0.09%     - 1634s
2025-11-09 15:07:16,698 INFO -      0     0 296227.354    0 3423 295947.000 296227.354  0.09%     - 1636s
2025-11-09 15:07:34,992 INFO -      0     0 296201.076    0 2610 295947.000 296201.076  0.09%     - 1655s
2025-11-09 15:07:40,224 INFO -      0     0 296199.740    0 2369 295947.000 296199.740  0.09%     - 1660s
2025-11-09 15:08:08,434 INFO -      0     0 296197.854    0 2937 295947.000 296197.854  0.08%     - 1688s
2025-11-09 15:08:09,249 INFO -      0     0 296197.615    0 2956 295947.000 296197.615  0.08%     - 1689s
2025-11-09 15:08:25,949 INFO -      0     0 296182.584    0 2812 295947.000 296182.584  0.08%     - 1706s
2025-11-09 15:08:54,798 INFO -      0     0 296177.301    0 2751 295947.000 296177.301  0.08%     - 1734s
2025-11-09 15:09:00,504 INFO -      0     0 296176.511    0 3227 295947.000 296176.511  0.08%     - 1740s
2025-11-09 15:09:19,124 INFO -      0     0 296161.037    0 1925 295947.000 296161.037  0.07%     - 1759s
2025-11-09 15:09:22,862 INFO -      0     0 296160.559    0 1422 295947.000 296160.559  0.07%     - 1763s
2025-11-09 15:09:32,051 INFO -      0     0 296157.609    0 2743 295947.000 296157.609  0.07%     - 1772s
2025-11-09 15:09:47,654 INFO -      0     0 296146.824    0 1688 295947.000 296146.824  0.07%     - 1787s
2025-11-09 15:10:30,762 INFO -      0     0 296146.824    0  337 295947.000 296146.824  0.07%     - 1830s
2025-11-09 15:10:51,300 INFO -      0     0 296146.824    0 2627 295947.000 296146.824  0.07%     - 1851s
2025-11-09 15:11:16,654 INFO -      0     0 296146.824    0 3872 295947.000 296146.824  0.07%     - 1876s
2025-11-09 15:11:30,292 INFO -      0     0 296146.824    0 4488 295947.000 296146.824  0.07%     - 1890s
2025-11-09 15:11:42,517 INFO -      0     0 296146.824    0 4252 295947.000 296146.824  0.07%     - 1902s
2025-11-09 15:11:53,815 INFO -      0     0 296146.824    0 4434 295947.000 296146.824  0.07%     - 1913s
2025-11-09 15:12:07,186 INFO -      0     0 296146.824    0 4302 295947.000 296146.824  0.07%     - 1927s
2025-11-09 15:12:18,258 INFO -      0     0 296146.824    0 4490 295947.000 296146.824  0.07%     - 1938s
2025-11-09 15:12:26,836 INFO -      0     0 296146.824    0 3935 295947.000 296146.824  0.07%     - 1946s
2025-11-09 15:12:35,306 INFO -      0     0 296146.824    0 3909 295947.000 296146.824  0.07%     - 1955s
2025-11-09 15:12:45,246 INFO -      0     0 296146.824    0 3177 295947.000 296146.824  0.07%     - 1965s
2025-11-09 15:12:49,864 INFO -      0     0 296146.824    0 2752 295947.000 296146.824  0.07%     - 1970s
2025-11-09 15:12:53,468 INFO -      0     0 296146.824    0 1725 295947.000 296146.824  0.07%     - 1973s
2025-11-09 15:12:59,637 INFO -      0     0 296146.824    0 2086 295947.000 296146.824  0.07%     - 1979s
2025-11-09 15:13:04,930 INFO -      0     0 296146.824    0 2211 295947.000 296146.824  0.07%     - 1985s
2025-11-09 15:13:10,183 INFO -      0     0 296146.824    0 3107 295947.000 296146.824  0.07%     - 1990s
2025-11-09 15:13:15,140 INFO -      0     0 296146.824    0 1654 295947.000 296146.824  0.07%     - 1995s
2025-11-09 15:13:16,628 INFO -      0     0 296146.824    0 1692 295947.000 296146.824  0.07%     - 1996s
2025-11-09 15:13:18,370 INFO -      0     0 296146.824    0 1574 295947.000 296146.824  0.07%     - 1998s
2025-11-09 15:13:20,491 INFO -      0     0 296146.824    0 1556 295947.000 296146.824  0.07%     - 2000s
2025-11-09 15:13:22,368 INFO -      0     0 296146.748    0 1673 295947.000 296146.748  0.07%     - 2002s
2025-11-09 15:13:24,132 INFO -      0     0 296146.507    0 1585 295947.000 296146.507  0.07%     - 2004s
2025-11-09 15:13:34,426 INFO -      0     0 296141.779    0 3990 295947.000 296141.779  0.07%     - 2014s
2025-11-09 15:13:42,632 INFO -      0     0 296140.422    0 1934 295947.000 296140.422  0.07%     - 2022s
2025-11-09 15:13:51,756 INFO -      0     0 296137.319    0 1560 295947.000 296137.319  0.06%     - 2031s
2025-11-09 15:14:07,551 INFO -      0     0 296136.259    0 1602 295947.000 296136.259  0.06%     - 2047s
2025-11-09 15:14:14,767 INFO -      0     0 296134.300    0 1469 295947.000 296134.300  0.06%     - 2054s
2025-11-09 15:14:17,755 INFO -      0     0 296134.179    0 1270 295947.000 296134.179  0.06%     - 2057s
2025-11-09 15:14:25,260 INFO -      0     0 296134.111    0 1712 295947.000 296134.111  0.06%     - 2065s
2025-11-09 15:14:31,841 INFO -      0     0 296131.504    0 1642 295947.000 296131.504  0.06%     - 2072s
2025-11-09 15:14:36,739 INFO -      0     0 296131.425    0 1514 295947.000 296131.425  0.06%     - 2076s
2025-11-09 15:15:47,157 INFO -      0     1 296131.368    0 1456 295947.000 296131.368  0.06%     - 2147s
2025-11-09 15:15:56,058 INFO -      6     3 296130.770    4  734 295947.000 296131.106  0.06%  1819 2156s
2025-11-09 15:16:03,657 INFO -     11     5 296130.342    6  730 295947.000 296130.342  0.06%  1280 2163s
2025-11-09 15:16:06,091 INFO -     15     5 296130.064    7  859 295947.000 296130.064  0.06%  1132 2166s
2025-11-09 15:16:11,414 INFO -     31     7 296129.759   10  981 295947.000 296129.759  0.06%   583 2171s
2025-11-09 15:16:21,633 INFO -     37     9 296129.682   11  913 295947.000 296129.682  0.06%   597 2181s
2025-11-09 15:16:34,208 INFO -     44    10 296117.888   12  986 295947.000 296129.641  0.06%   841 2194s
2025-11-09 15:16:54,666 INFO -     52    14 296117.314   13 1600 295947.000 296129.641  0.06%   802 2214s
2025-11-09 15:17:06,135 INFO -     62    20 296116.881   14 1508 295947.000 296127.986  0.06%   830 2226s
2025-11-09 15:17:22,812 INFO -     81    18 296115.334   15 1792 295947.000 296127.781  0.06%   809 2242s
2025-11-09 15:17:39,315 INFO -    104    25 296112.516   16 1543 295947.000 296127.709  0.06%   899 2259s
2025-11-09 15:17:54,570 INFO -    130    24 296107.843   17 1467 295947.000 296124.767  0.06%   904 2274s
2025-11-09 15:18:10,131 INFO -    152    28 296106.743   18 1474 295947.000 296123.780  0.06%   954 2290s
2025-11-09 15:18:23,098 INFO -    176    38 296105.818   19 1401 295947.000 296122.560  0.06%   983 2303s
2025-11-09 15:18:29,812 INFO -    205    50 296105.280   20  906 295947.000 296122.229  0.06%   912 2309s
2025-11-09 15:18:29,840 INFO -    218    50 296121.904   20 2066 295947.000 296122.229  0.06%   863 2310s
2025-11-09 15:18:44,926 INFO -    243    53 296103.350   21 1077 295947.000 296122.229  0.06%   799 2325s
2025-11-09 15:19:01,417 INFO -    281    51 296099.835   22  982 295947.000 296122.229  0.06%   775 2341s
2025-11-09 15:19:12,671 INFO -    325    61     cutoff   22      295947.000 296122.229  0.06%   731 2352s
2025-11-09 15:19:29,270 INFO -    378    61 296056.667   21  951 295947.000 296122.229  0.06%   675 2369s
2025-11-09 15:19:41,175 INFO -    420    61 296055.682   22  901 295947.000 296122.229  0.06%   679 2381s
2025-11-09 15:19:54,562 INFO -    466    74 296034.529   23  928 295947.000 296122.229  0.06%   659 2394s
2025-11-09 15:20:02,939 INFO -    513    83 296033.283   24 1054 295947.000 296122.229  0.06%   625 2403s
2025-11-09 15:20:09,664 INFO -    564    90 296033.035   25 1102 295947.000 296122.229  0.06%   589 2409s
2025-11-09 15:20:22,893 INFO -    621    95 296031.977   26  949 295947.000 296119.060  0.06%   551 2423s
2025-11-09 15:20:36,322 INFO -    676    90 296028.765   27  871 295947.000 296119.060  0.06%   529 2436s
2025-11-09 15:21:03,333 INFO -    728    98     cutoff   26      295947.000 296119.060  0.06%   512 2463s
2025-11-09 15:21:18,036 INFO -    792    95     cutoff   30      295947.000 296119.060  0.06%   484 2478s
2025-11-09 15:21:31,001 INFO -    863    95 296060.506   40  857 295947.000 296119.060  0.06%   468 2491s
2025-11-09 15:21:43,399 INFO -    942    81 296059.921   41  147 295947.000 296119.060  0.06%   448 2503s
2025-11-09 15:21:54,981 INFO -   1016    89 296059.550   42  139 295947.000 296119.060  0.06%   434 2515s
2025-11-09 15:22:03,503 INFO -   1090    78 296058.119   44  380 295947.000 296119.060  0.06%   424 2523s
2025-11-09 15:22:14,731 INFO -   1171    66     cutoff   44      295947.000 296119.060  0.06%   412 2534s
2025-11-09 15:22:24,473 INFO -   1232    71 296109.808   46  969 295947.000 296110.434  0.06%   401 2544s
2025-11-09 15:22:37,611 INFO -   1303    96 296108.861   48  952 295947.000 296109.657  0.05%   394 2557s
2025-11-09 15:22:47,276 INFO -   1399   105 296108.452   51 1057 295947.000 296109.657  0.05%   387 2567s
2025-11-09 15:22:59,599 INFO -   1493   107 295998.009   53  269 295947.000 296109.657  0.05%   382 2579s
2025-11-09 15:23:17,535 INFO -   1600    73 295992.640   54  439 295947.000 296109.657  0.05%   370 2597s
2025-11-09 15:23:32,037 INFO -   1704    45 296050.595   61  218 295947.000 296102.839  0.05%   364 2612s
2025-11-09 15:23:41,829 INFO -   1798    34     cutoff   64      295947.000 296058.353  0.04%   361 2621s
2025-11-09 15:23:54,026 INFO -   1863    22 296001.365   24 3328 295947.000 296046.036  0.03%   363 2634s
2025-11-09 15:24:00,782 INFO -   1911    11     cutoff   25      295947.000 296023.361  0.03%   360 2640s
2025-11-09 15:24:06,334 INFO -   1943     6 295996.226   56  722 295947.000 295999.214  0.02%   364 2646s
2025-11-09 15:24:11,468 INFO -   1969     8 295993.777   57  896 295947.000 295996.050  0.02%   365 2651s
2025-11-09 15:24:16,552 INFO -   1982    10     cutoff   60      295947.000 295993.124  0.02%   367 2656s
2025-11-09 15:24:21,934 INFO -   1997     3     cutoff   63      295947.000 295991.618  0.02%   369 2662s
2025-11-09 15:24:26,317 INFO -   2016     1 295986.105   66  153 295947.000 295989.418  0.01%   368 2666s
2025-11-09 15:24:27,378 INFO - 
2025-11-09 15:24:27,378 INFO - Cutting planes:
2025-11-09 15:24:27,378 INFO -   Cover: 7393
2025-11-09 15:24:27,378 INFO -   Clique: 2393
2025-11-09 15:24:27,378 INFO -   MIR: 509
2025-11-09 15:24:27,378 INFO -   StrongCG: 109
2025-11-09 15:24:27,378 INFO -   Zero half: 2
2025-11-09 15:24:27,378 INFO -   RLT: 6
2025-11-09 15:24:27,378 INFO -   Relax-and-lift: 367
2025-11-09 15:24:27,720 INFO - 
2025-11-09 15:24:27,721 INFO - Explored 2026 nodes (2299009 simplex iterations) in 2667.88 seconds (2975.93 work units)
2025-11-09 15:24:27,721 INFO - Thread count was 20 (of 20 available processors)
2025-11-09 15:24:27,721 INFO - 
2025-11-09 15:24:27,721 INFO - Solution count 10: 295947 295866 295849 ... 293862
2025-11-09 15:24:27,721 INFO - 
2025-11-09 15:24:27,721 INFO - Optimal solution found (tolerance 1.00e-04)
2025-11-09 15:24:27,754 INFO - Best objective 2.959470000000e+05, best bound 2.959470000000e+05, gap 0.0000%
2025-11-09 15:24:28,048 INFO - Execution time: 2668.21080994606
2025-11-09 15:24:28,049 INFO - Final solution: 295947.0
2025-11-09 15:24:38,126 INFO - Exported used lines to Results\100_percent\budget_10000\original\used_lines.csv
2025-11-09 15:24:39,976 INFO - Exported passenger assignments to Results\100_percent\budget_10000\original\passenger_assignments.csv
2025-11-09 15:28:14,103 INFO - Exported flows to Results\100_percent\budget_10000\original\flows.csv
